outputs/case_183.model.txt
unable_to_fulfill_contract = False
capital_adequacy_ratio = 40
supervisory_measures_issued = True
risk_to_insured_rights = True
improvement_plan_submitted_and_completed = False
net_worth_ratio = 3/2
improvement_plan_overdue = True
improvement_plan_approved_by_authority = False
net_worth = -1000000
significant_financial_deterioration = True
accelerated_loss_or_net_worth_decline = False
no_improvement_after_guidance = False
unable_to_pay_debt = False
violation_148_2_2 = False
capital_level_4_and_plan_overdue = True
financial_or_business_deterioration = True
supervisory_measures_executed = True
violation_148_3_1 = False
improvement_plan_approved = False
violation_148_2_1_flag = False
violation_148_3_1_flag = False
violation_148_2_2_flag = False
capital_level = 4
violation_148_2_1 = False
capital_level_insufficient = False
accelerated_deterioration_or_no_improvement = False
improvement_plan_completed = False
violation_148_1_or_2_flag = False
capital_level_significantly_insufficient = False
capital_level_severely_insufficient = True
penalty = False
violation_148_3_2_flag = False
violation_148_3_2 = False
supervisory_measures_required = True
violation_148_1_or_2 = False